\ This file has been generated by DOcplex
\ ENCODING=ISO-8859-1
\Problem name: random_problem.lp

Minimize
 obj: - 3 x0 - 9 x1 + 8 x2 - 6 x3 - x4 + 2 x5 + 9 x6 + 6 x7 + 6 x8 + 5 x9
      - 10 x10 - 6 x11 - 9 x12 + x13 + 2 x14 - 8 x15 - 9 x16 + [ - 6 x0*x4
      + 20 x0*x7 + 10 x0*x11 - 20 x0*x12 - 6 x0*x15 - 12 x1*x3 + 14 x1*x7
      - 20 x1*x10 - 8 x1*x15 + 10 x1*x18 - 6 x2*x6 + 6 x2*x12 + 14 x2*x13
      + 6 x2*x15 - 16 x2*x17 + 2 x3*x4 + 18 x3*x5 + 2 x3*x10 - 4 x3*x11
      - 4 x4*x6 - 14 x4*x8 - 2 x4*x13 - 14 x5*x9 - 6 x5*x12 - 16 x5*x13
      - 8 x5*x14 - 18 x6*x8 - 20 x6*x10 - 16 x6*x18 + 14 x7*x8 - 16 x7*x9
      - 4 x7*x18 - 8 x8*x13 - 20 x8*x18 + 20 x9*x10 + 12 x9*x16 + 14 x9*x18
      - 2 x10*x14 - 10 x11*x12 + 20 x11*x15 + 12 x11*x17 - 4 x12*x15
      + 12 x13*x16 - 14 x14*x16 - 14 x14*x17 - 2 x16*x17 ]/2
Subject To
 c0: x10 - 2 x11 + 2 x12 + 2 x14 - 2 x16 = -2
 c1: x0 - x4 - x5 - x9 - 2 x14 = 1
 c2: 2 x0 - 2 x4 + x5 - x12 - 2 x18 = -1

Bounds
 0 <= x0 <= 1
 0 <= x1 <= 1
 0 <= x2 <= 1
 0 <= x3 <= 1
 0 <= x4 <= 1
 0 <= x5 <= 1
 0 <= x6 <= 1
 0 <= x7 <= 1
 0 <= x8 <= 1
 0 <= x9 <= 1
 0 <= x10 <= 1
 0 <= x11 <= 1
 0 <= x12 <= 1
 0 <= x13 <= 1
 0 <= x14 <= 1
 0 <= x15 <= 1
 0 <= x16 <= 1
 0 <= x17 <= 1
 0 <= x18 <= 1

Binaries
 x0 x1 x2 x3 x4 x5 x6 x7 x8 x9 x10 x11 x12 x13 x14 x15 x16 x17 x18
End
